NAME: 3tTo8cKpIQbLJ3MTzgEVjV
TYPE: TSP
DIMENSION: 77
NODE_COORD_TYPE: NO_COORDS
EDGE_WEIGHT_TYPE: EXPLICIT
DISPLAY_DATA_TYPE: NO_DISPLAY
EDGE_WEIGHT_FORMAT: FULL_MATRIX
EDGE_WEIGHT_SECTION:
0 275 275 275 275 275 275 275 275 275 275 275 275 275 275 275 275 921 921 921 921 921 921 921 921 921 921 986 986 986 986 986 986 986 986 986 986 986 986 986 986 986 1000 1000 1000 1000 1000 1000 1000 1000 1000 1000 1000 1000 1000 1000 1000 1000 1000 1000 1000 1000 1000 879 879 879 879 879 879 879 879 966 925 953 953 953 969
275 0 275 275 275 275 275 275 275 275 275 275 275 275 275 275 275 921 921 921 921 921 921 921 921 921 921 986 986 986 986 986 986 986 986 986 986 986 986 986 986 986 1000 1000 1000 1000 1000 1000 1000 1000 1000 1000 1000 1000 1000 1000 1000 1000 1000 1000 1000 1000 1000 879 879 879 879 879 879 879 879 966 925 953 953 953 969
275 275 0 275 275 275 275 275 275 275 275 275 275 275 275 275 275 921 921 921 921 921 921 921 921 921 921 986 986 986 986 986 986 986 986 986 986 986 986 986 986 986 1000 1000 1000 1000 1000 1000 1000 1000 1000 1000 1000 1000 1000 1000 1000 1000 1000 1000 1000 1000 1000 879 879 879 879 879 879 879 879 966 925 953 953 953 969
275 275 275 0 275 275 275 275 275 275 275 275 275 275 275 275 275 921 921 921 921 921 921 921 921 921 921 986 986 986 986 986 986 986 986 986 986 986 986 986 986 986 1000 1000 1000 1000 1000 1000 1000 1000 1000 1000 1000 1000 1000 1000 1000 1000 1000 1000 1000 1000 1000 879 879 879 879 879 879 879 879 966 925 953 953 953 969
275 275 275 275 0 275 275 275 275 275 275 275 275 275 275 275 275 921 921 921 921 921 921 921 921 921 921 986 986 986 986 986 986 986 986 986 986 986 986 986 986 986 1000 1000 1000 1000 1000 1000 1000 1000 1000 1000 1000 1000 1000 1000 1000 1000 1000 1000 1000 1000 1000 879 879 879 879 879 879 879 879 966 925 953 953 953 969
275 275 275 275 275 0 275 275 275 275 275 275 275 275 275 275 275 921 921 921 921 921 921 921 921 921 921 986 986 986 986 986 986 986 986 986 986 986 986 986 986 986 1000 1000 1000 1000 1000 1000 1000 1000 1000 1000 1000 1000 1000 1000 1000 1000 1000 1000 1000 1000 1000 879 879 879 879 879 879 879 879 966 925 953 953 953 969
275 275 275 275 275 275 0 275 275 275 275 275 275 275 275 275 275 921 921 921 921 921 921 921 921 921 921 986 986 986 986 986 986 986 986 986 986 986 986 986 986 986 1000 1000 1000 1000 1000 1000 1000 1000 1000 1000 1000 1000 1000 1000 1000 1000 1000 1000 1000 1000 1000 879 879 879 879 879 879 879 879 966 925 953 953 953 969
275 275 275 275 275 275 275 0 275 275 275 275 275 275 275 275 275 921 921 921 921 921 921 921 921 921 921 986 986 986 986 986 986 986 986 986 986 986 986 986 986 986 1000 1000 1000 1000 1000 1000 1000 1000 1000 1000 1000 1000 1000 1000 1000 1000 1000 1000 1000 1000 1000 879 879 879 879 879 879 879 879 966 925 953 953 953 969
275 275 275 275 275 275 275 275 0 275 275 275 275 275 275 275 275 921 921 921 921 921 921 921 921 921 921 986 986 986 986 986 986 986 986 986 986 986 986 986 986 986 1000 1000 1000 1000 1000 1000 1000 1000 1000 1000 1000 1000 1000 1000 1000 1000 1000 1000 1000 1000 1000 879 879 879 879 879 879 879 879 966 925 953 953 953 969
275 275 275 275 275 275 275 275 275 0 275 275 275 275 275 275 275 921 921 921 921 921 921 921 921 921 921 986 986 986 986 986 986 986 986 986 986 986 986 986 986 986 1000 1000 1000 1000 1000 1000 1000 1000 1000 1000 1000 1000 1000 1000 1000 1000 1000 1000 1000 1000 1000 879 879 879 879 879 879 879 879 966 925 953 953 953 969
275 275 275 275 275 275 275 275 275 275 0 275 275 275 275 275 275 921 921 921 921 921 921 921 921 921 921 986 986 986 986 986 986 986 986 986 986 986 986 986 986 986 1000 1000 1000 1000 1000 1000 1000 1000 1000 1000 1000 1000 1000 1000 1000 1000 1000 1000 1000 1000 1000 879 879 879 879 879 879 879 879 966 925 953 953 953 969
275 275 275 275 275 275 275 275 275 275 275 0 275 275 275 275 275 921 921 921 921 921 921 921 921 921 921 986 986 986 986 986 986 986 986 986 986 986 986 986 986 986 1000 1000 1000 1000 1000 1000 1000 1000 1000 1000 1000 1000 1000 1000 1000 1000 1000 1000 1000 1000 1000 879 879 879 879 879 879 879 879 966 925 953 953 953 969
275 275 275 275 275 275 275 275 275 275 275 275 0 275 275 275 275 921 921 921 921 921 921 921 921 921 921 986 986 986 986 986 986 986 986 986 986 986 986 986 986 986 1000 1000 1000 1000 1000 1000 1000 1000 1000 1000 1000 1000 1000 1000 1000 1000 1000 1000 1000 1000 1000 879 879 879 879 879 879 879 879 966 925 953 953 953 969
275 275 275 275 275 275 275 275 275 275 275 275 275 0 275 275 275 921 921 921 921 921 921 921 921 921 921 986 986 986 986 986 986 986 986 986 986 986 986 986 986 986 1000 1000 1000 1000 1000 1000 1000 1000 1000 1000 1000 1000 1000 1000 1000 1000 1000 1000 1000 1000 1000 879 879 879 879 879 879 879 879 966 925 953 953 953 969
275 275 275 275 275 275 275 275 275 275 275 275 275 275 0 275 275 921 921 921 921 921 921 921 921 921 921 986 986 986 986 986 986 986 986 986 986 986 986 986 986 986 1000 1000 1000 1000 1000 1000 1000 1000 1000 1000 1000 1000 1000 1000 1000 1000 1000 1000 1000 1000 1000 879 879 879 879 879 879 879 879 966 925 953 953 953 969
275 275 275 275 275 275 275 275 275 275 275 275 275 275 275 0 275 921 921 921 921 921 921 921 921 921 921 986 986 986 986 986 986 986 986 986 986 986 986 986 986 986 1000 1000 1000 1000 1000 1000 1000 1000 1000 1000 1000 1000 1000 1000 1000 1000 1000 1000 1000 1000 1000 879 879 879 879 879 879 879 879 966 925 953 953 953 969
275 275 275 275 275 275 275 275 275 275 275 275 275 275 275 275 0 921 921 921 921 921 921 921 921 921 921 986 986 986 986 986 986 986 986 986 986 986 986 986 986 986 1000 1000 1000 1000 1000 1000 1000 1000 1000 1000 1000 1000 1000 1000 1000 1000 1000 1000 1000 1000 1000 879 879 879 879 879 879 879 879 966 925 953 953 953 969
921 921 921 921 921 921 921 921 921 921 921 921 921 921 921 921 921 0 275 275 275 275 275 275 275 275 275 984 984 984 984 984 984 984 984 984 984 984 984 984 984 984 1000 1000 1000 1000 1000 1000 1000 1000 1000 1000 1000 1000 1000 1000 1000 1000 1000 1000 1000 1000 1000 985 985 985 985 985 985 985 985 980 950 985 985 985 981
921 921 921 921 921 921 921 921 921 921 921 921 921 921 921 921 921 275 0 275 275 275 275 275 275 275 275 984 984 984 984 984 984 984 984 984 984 984 984 984 984 984 1000 1000 1000 1000 1000 1000 1000 1000 1000 1000 1000 1000 1000 1000 1000 1000 1000 1000 1000 1000 1000 985 985 985 985 985 985 985 985 980 950 985 985 985 981
921 921 921 921 921 921 921 921 921 921 921 921 921 921 921 921 921 275 275 0 275 275 275 275 275 275 275 984 984 984 984 984 984 984 984 984 984 984 984 984 984 984 1000 1000 1000 1000 1000 1000 1000 1000 1000 1000 1000 1000 1000 1000 1000 1000 1000 1000 1000 1000 1000 985 985 985 985 985 985 985 985 980 950 985 985 985 981
921 921 921 921 921 921 921 921 921 921 921 921 921 921 921 921 921 275 275 275 0 275 275 275 275 275 275 984 984 984 984 984 984 984 984 984 984 984 984 984 984 984 1000 1000 1000 1000 1000 1000 1000 1000 1000 1000 1000 1000 1000 1000 1000 1000 1000 1000 1000 1000 1000 985 985 985 985 985 985 985 985 980 950 985 985 985 981
921 921 921 921 921 921 921 921 921 921 921 921 921 921 921 921 921 275 275 275 275 0 275 275 275 275 275 984 984 984 984 984 984 984 984 984 984 984 984 984 984 984 1000 1000 1000 1000 1000 1000 1000 1000 1000 1000 1000 1000 1000 1000 1000 1000 1000 1000 1000 1000 1000 985 985 985 985 985 985 985 985 980 950 985 985 985 981
921 921 921 921 921 921 921 921 921 921 921 921 921 921 921 921 921 275 275 275 275 275 0 275 275 275 275 984 984 984 984 984 984 984 984 984 984 984 984 984 984 984 1000 1000 1000 1000 1000 1000 1000 1000 1000 1000 1000 1000 1000 1000 1000 1000 1000 1000 1000 1000 1000 985 985 985 985 985 985 985 985 980 950 985 985 985 981
921 921 921 921 921 921 921 921 921 921 921 921 921 921 921 921 921 275 275 275 275 275 275 0 275 275 275 984 984 984 984 984 984 984 984 984 984 984 984 984 984 984 1000 1000 1000 1000 1000 1000 1000 1000 1000 1000 1000 1000 1000 1000 1000 1000 1000 1000 1000 1000 1000 985 985 985 985 985 985 985 985 980 950 985 985 985 981
921 921 921 921 921 921 921 921 921 921 921 921 921 921 921 921 921 275 275 275 275 275 275 275 0 275 275 984 984 984 984 984 984 984 984 984 984 984 984 984 984 984 1000 1000 1000 1000 1000 1000 1000 1000 1000 1000 1000 1000 1000 1000 1000 1000 1000 1000 1000 1000 1000 985 985 985 985 985 985 985 985 980 950 985 985 985 981
921 921 921 921 921 921 921 921 921 921 921 921 921 921 921 921 921 275 275 275 275 275 275 275 275 0 275 984 984 984 984 984 984 984 984 984 984 984 984 984 984 984 1000 1000 1000 1000 1000 1000 1000 1000 1000 1000 1000 1000 1000 1000 1000 1000 1000 1000 1000 1000 1000 985 985 985 985 985 985 985 985 980 950 985 985 985 981
921 921 921 921 921 921 921 921 921 921 921 921 921 921 921 921 921 275 275 275 275 275 275 275 275 275 0 984 984 984 984 984 984 984 984 984 984 984 984 984 984 984 1000 1000 1000 1000 1000 1000 1000 1000 1000 1000 1000 1000 1000 1000 1000 1000 1000 1000 1000 1000 1000 985 985 985 985 985 985 985 985 980 950 985 985 985 981
986 986 986 986 986 986 986 986 986 986 986 986 986 986 986 986 986 984 984 984 984 984 984 984 984 984 984 0 275 275 275 275 275 275 275 275 275 275 275 275 275 275 866 866 866 866 866 866 866 866 866 866 866 866 866 866 983 983 983 983 983 983 983 986 986 986 986 986 986 986 986 963 969 927 927 927 767
986 986 986 986 986 986 986 986 986 986 986 986 986 986 986 986 986 984 984 984 984 984 984 984 984 984 984 275 0 275 275 275 275 275 275 275 275 275 275 275 275 275 866 866 866 866 866 866 866 866 866 866 866 866 866 866 983 983 983 983 983 983 983 986 986 986 986 986 986 986 986 963 969 927 927 927 767
986 986 986 986 986 986 986 986 986 986 986 986 986 986 986 986 986 984 984 984 984 984 984 984 984 984 984 275 275 0 275 275 275 275 275 275 275 275 275 275 275 275 866 866 866 866 866 866 866 866 866 866 866 866 866 866 983 983 983 983 983 983 983 986 986 986 986 986 986 986 986 963 969 927 927 927 767
986 986 986 986 986 986 986 986 986 986 986 986 986 986 986 986 986 984 984 984 984 984 984 984 984 984 984 275 275 275 0 275 275 275 275 275 275 275 275 275 275 275 866 866 866 866 866 866 866 866 866 866 866 866 866 866 983 983 983 983 983 983 983 986 986 986 986 986 986 986 986 963 969 927 927 927 767
986 986 986 986 986 986 986 986 986 986 986 986 986 986 986 986 986 984 984 984 984 984 984 984 984 984 984 275 275 275 275 0 275 275 275 275 275 275 275 275 275 275 866 866 866 866 866 866 866 866 866 866 866 866 866 866 983 983 983 983 983 983 983 986 986 986 986 986 986 986 986 963 969 927 927 927 767
986 986 986 986 986 986 986 986 986 986 986 986 986 986 986 986 986 984 984 984 984 984 984 984 984 984 984 275 275 275 275 275 0 275 275 275 275 275 275 275 275 275 866 866 866 866 866 866 866 866 866 866 866 866 866 866 983 983 983 983 983 983 983 986 986 986 986 986 986 986 986 963 969 927 927 927 767
986 986 986 986 986 986 986 986 986 986 986 986 986 986 986 986 986 984 984 984 984 984 984 984 984 984 984 275 275 275 275 275 275 0 275 275 275 275 275 275 275 275 866 866 866 866 866 866 866 866 866 866 866 866 866 866 983 983 983 983 983 983 983 986 986 986 986 986 986 986 986 963 969 927 927 927 767
986 986 986 986 986 986 986 986 986 986 986 986 986 986 986 986 986 984 984 984 984 984 984 984 984 984 984 275 275 275 275 275 275 275 0 275 275 275 275 275 275 275 866 866 866 866 866 866 866 866 866 866 866 866 866 866 983 983 983 983 983 983 983 986 986 986 986 986 986 986 986 963 969 927 927 927 767
986 986 986 986 986 986 986 986 986 986 986 986 986 986 986 986 986 984 984 984 984 984 984 984 984 984 984 275 275 275 275 275 275 275 275 0 275 275 275 275 275 275 866 866 866 866 866 866 866 866 866 866 866 866 866 866 983 983 983 983 983 983 983 986 986 986 986 986 986 986 986 963 969 927 927 927 767
986 986 986 986 986 986 986 986 986 986 986 986 986 986 986 986 986 984 984 984 984 984 984 984 984 984 984 275 275 275 275 275 275 275 275 275 0 275 275 275 275 275 866 866 866 866 866 866 866 866 866 866 866 866 866 866 983 983 983 983 983 983 983 986 986 986 986 986 986 986 986 963 969 927 927 927 767
986 986 986 986 986 986 986 986 986 986 986 986 986 986 986 986 986 984 984 984 984 984 984 984 984 984 984 275 275 275 275 275 275 275 275 275 275 0 275 275 275 275 866 866 866 866 866 866 866 866 866 866 866 866 866 866 983 983 983 983 983 983 983 986 986 986 986 986 986 986 986 963 969 927 927 927 767
986 986 986 986 986 986 986 986 986 986 986 986 986 986 986 986 986 984 984 984 984 984 984 984 984 984 984 275 275 275 275 275 275 275 275 275 275 275 0 275 275 275 866 866 866 866 866 866 866 866 866 866 866 866 866 866 983 983 983 983 983 983 983 986 986 986 986 986 986 986 986 963 969 927 927 927 767
986 986 986 986 986 986 986 986 986 986 986 986 986 986 986 986 986 984 984 984 984 984 984 984 984 984 984 275 275 275 275 275 275 275 275 275 275 275 275 0 275 275 866 866 866 866 866 866 866 866 866 866 866 866 866 866 983 983 983 983 983 983 983 986 986 986 986 986 986 986 986 963 969 927 927 927 767
986 986 986 986 986 986 986 986 986 986 986 986 986 986 986 986 986 984 984 984 984 984 984 984 984 984 984 275 275 275 275 275 275 275 275 275 275 275 275 275 0 275 866 866 866 866 866 866 866 866 866 866 866 866 866 866 983 983 983 983 983 983 983 986 986 986 986 986 986 986 986 963 969 927 927 927 767
986 986 986 986 986 986 986 986 986 986 986 986 986 986 986 986 986 984 984 984 984 984 984 984 984 984 984 275 275 275 275 275 275 275 275 275 275 275 275 275 275 0 866 866 866 866 866 866 866 866 866 866 866 866 866 866 983 983 983 983 983 983 983 986 986 986 986 986 986 986 986 963 969 927 927 927 767
1000 1000 1000 1000 1000 1000 1000 1000 1000 1000 1000 1000 1000 1000 1000 1000 1000 1000 1000 1000 1000 1000 1000 1000 1000 1000 1000 866 866 866 866 866 866 866 866 866 866 866 866 866 866 866 0 275 275 275 275 275 275 275 275 275 275 275 275 275 821 821 821 821 821 821 821 984 984 984 984 984 984 984 984 977 981 984 984 984 888
1000 1000 1000 1000 1000 1000 1000 1000 1000 1000 1000 1000 1000 1000 1000 1000 1000 1000 1000 1000 1000 1000 1000 1000 1000 1000 1000 866 866 866 866 866 866 866 866 866 866 866 866 866 866 866 275 0 275 275 275 275 275 275 275 275 275 275 275 275 821 821 821 821 821 821 821 984 984 984 984 984 984 984 984 977 981 984 984 984 888
1000 1000 1000 1000 1000 1000 1000 1000 1000 1000 1000 1000 1000 1000 1000 1000 1000 1000 1000 1000 1000 1000 1000 1000 1000 1000 1000 866 866 866 866 866 866 866 866 866 866 866 866 866 866 866 275 275 0 275 275 275 275 275 275 275 275 275 275 275 821 821 821 821 821 821 821 984 984 984 984 984 984 984 984 977 981 984 984 984 888
1000 1000 1000 1000 1000 1000 1000 1000 1000 1000 1000 1000 1000 1000 1000 1000 1000 1000 1000 1000 1000 1000 1000 1000 1000 1000 1000 866 866 866 866 866 866 866 866 866 866 866 866 866 866 866 275 275 275 0 275 275 275 275 275 275 275 275 275 275 821 821 821 821 821 821 821 984 984 984 984 984 984 984 984 977 981 984 984 984 888
1000 1000 1000 1000 1000 1000 1000 1000 1000 1000 1000 1000 1000 1000 1000 1000 1000 1000 1000 1000 1000 1000 1000 1000 1000 1000 1000 866 866 866 866 866 866 866 866 866 866 866 866 866 866 866 275 275 275 275 0 275 275 275 275 275 275 275 275 275 821 821 821 821 821 821 821 984 984 984 984 984 984 984 984 977 981 984 984 984 888
1000 1000 1000 1000 1000 1000 1000 1000 1000 1000 1000 1000 1000 1000 1000 1000 1000 1000 1000 1000 1000 1000 1000 1000 1000 1000 1000 866 866 866 866 866 866 866 866 866 866 866 866 866 866 866 275 275 275 275 275 0 275 275 275 275 275 275 275 275 821 821 821 821 821 821 821 984 984 984 984 984 984 984 984 977 981 984 984 984 888
1000 1000 1000 1000 1000 1000 1000 1000 1000 1000 1000 1000 1000 1000 1000 1000 1000 1000 1000 1000 1000 1000 1000 1000 1000 1000 1000 866 866 866 866 866 866 866 866 866 866 866 866 866 866 866 275 275 275 275 275 275 0 275 275 275 275 275 275 275 821 821 821 821 821 821 821 984 984 984 984 984 984 984 984 977 981 984 984 984 888
1000 1000 1000 1000 1000 1000 1000 1000 1000 1000 1000 1000 1000 1000 1000 1000 1000 1000 1000 1000 1000 1000 1000 1000 1000 1000 1000 866 866 866 866 866 866 866 866 866 866 866 866 866 866 866 275 275 275 275 275 275 275 0 275 275 275 275 275 275 821 821 821 821 821 821 821 984 984 984 984 984 984 984 984 977 981 984 984 984 888
1000 1000 1000 1000 1000 1000 1000 1000 1000 1000 1000 1000 1000 1000 1000 1000 1000 1000 1000 1000 1000 1000 1000 1000 1000 1000 1000 866 866 866 866 866 866 866 866 866 866 866 866 866 866 866 275 275 275 275 275 275 275 275 0 275 275 275 275 275 821 821 821 821 821 821 821 984 984 984 984 984 984 984 984 977 981 984 984 984 888
1000 1000 1000 1000 1000 1000 1000 1000 1000 1000 1000 1000 1000 1000 1000 1000 1000 1000 1000 1000 1000 1000 1000 1000 1000 1000 1000 866 866 866 866 866 866 866 866 866 866 866 866 866 866 866 275 275 275 275 275 275 275 275 275 0 275 275 275 275 821 821 821 821 821 821 821 984 984 984 984 984 984 984 984 977 981 984 984 984 888
1000 1000 1000 1000 1000 1000 1000 1000 1000 1000 1000 1000 1000 1000 1000 1000 1000 1000 1000 1000 1000 1000 1000 1000 1000 1000 1000 866 866 866 866 866 866 866 866 866 866 866 866 866 866 866 275 275 275 275 275 275 275 275 275 275 0 275 275 275 821 821 821 821 821 821 821 984 984 984 984 984 984 984 984 977 981 984 984 984 888
1000 1000 1000 1000 1000 1000 1000 1000 1000 1000 1000 1000 1000 1000 1000 1000 1000 1000 1000 1000 1000 1000 1000 1000 1000 1000 1000 866 866 866 866 866 866 866 866 866 866 866 866 866 866 866 275 275 275 275 275 275 275 275 275 275 275 0 275 275 821 821 821 821 821 821 821 984 984 984 984 984 984 984 984 977 981 984 984 984 888
1000 1000 1000 1000 1000 1000 1000 1000 1000 1000 1000 1000 1000 1000 1000 1000 1000 1000 1000 1000 1000 1000 1000 1000 1000 1000 1000 866 866 866 866 866 866 866 866 866 866 866 866 866 866 866 275 275 275 275 275 275 275 275 275 275 275 275 0 275 821 821 821 821 821 821 821 984 984 984 984 984 984 984 984 977 981 984 984 984 888
1000 1000 1000 1000 1000 1000 1000 1000 1000 1000 1000 1000 1000 1000 1000 1000 1000 1000 1000 1000 1000 1000 1000 1000 1000 1000 1000 866 866 866 866 866 866 866 866 866 866 866 866 866 866 866 275 275 275 275 275 275 275 275 275 275 275 275 275 0 821 821 821 821 821 821 821 984 984 984 984 984 984 984 984 977 981 984 984 984 888
1000 1000 1000 1000 1000 1000 1000 1000 1000 1000 1000 1000 1000 1000 1000 1000 1000 1000 1000 1000 1000 1000 1000 1000 1000 1000 1000 983 983 983 983 983 983 983 983 983 983 983 983 983 983 983 821 821 821 821 821 821 821 821 821 821 821 821 821 821 0 275 275 275 275 275 275 984 984 984 984 984 984 984 984 977 981 984 984 984 980
1000 1000 1000 1000 1000 1000 1000 1000 1000 1000 1000 1000 1000 1000 1000 1000 1000 1000 1000 1000 1000 1000 1000 1000 1000 1000 1000 983 983 983 983 983 983 983 983 983 983 983 983 983 983 983 821 821 821 821 821 821 821 821 821 821 821 821 821 821 275 0 275 275 275 275 275 984 984 984 984 984 984 984 984 977 981 984 984 984 980
1000 1000 1000 1000 1000 1000 1000 1000 1000 1000 1000 1000 1000 1000 1000 1000 1000 1000 1000 1000 1000 1000 1000 1000 1000 1000 1000 983 983 983 983 983 983 983 983 983 983 983 983 983 983 983 821 821 821 821 821 821 821 821 821 821 821 821 821 821 275 275 0 275 275 275 275 984 984 984 984 984 984 984 984 977 981 984 984 984 980
1000 1000 1000 1000 1000 1000 1000 1000 1000 1000 1000 1000 1000 1000 1000 1000 1000 1000 1000 1000 1000 1000 1000 1000 1000 1000 1000 983 983 983 983 983 983 983 983 983 983 983 983 983 983 983 821 821 821 821 821 821 821 821 821 821 821 821 821 821 275 275 275 0 275 275 275 984 984 984 984 984 984 984 984 977 981 984 984 984 980
1000 1000 1000 1000 1000 1000 1000 1000 1000 1000 1000 1000 1000 1000 1000 1000 1000 1000 1000 1000 1000 1000 1000 1000 1000 1000 1000 983 983 983 983 983 983 983 983 983 983 983 983 983 983 983 821 821 821 821 821 821 821 821 821 821 821 821 821 821 275 275 275 275 0 275 275 984 984 984 984 984 984 984 984 977 981 984 984 984 980
1000 1000 1000 1000 1000 1000 1000 1000 1000 1000 1000 1000 1000 1000 1000 1000 1000 1000 1000 1000 1000 1000 1000 1000 1000 1000 1000 983 983 983 983 983 983 983 983 983 983 983 983 983 983 983 821 821 821 821 821 821 821 821 821 821 821 821 821 821 275 275 275 275 275 0 275 984 984 984 984 984 984 984 984 977 981 984 984 984 980
1000 1000 1000 1000 1000 1000 1000 1000 1000 1000 1000 1000 1000 1000 1000 1000 1000 1000 1000 1000 1000 1000 1000 1000 1000 1000 1000 983 983 983 983 983 983 983 983 983 983 983 983 983 983 983 821 821 821 821 821 821 821 821 821 821 821 821 821 821 275 275 275 275 275 275 0 984 984 984 984 984 984 984 984 977 981 984 984 984 980
879 879 879 879 879 879 879 879 879 879 879 879 879 879 879 879 879 985 985 985 985 985 985 985 985 985 985 986 986 986 986 986 986 986 986 986 986 986 986 986 986 986 984 984 984 984 984 984 984 984 984 984 984 984 984 984 984 984 984 984 984 984 984 0 275 275 275 275 275 275 275 983 985 942 942 942 984
879 879 879 879 879 879 879 879 879 879 879 879 879 879 879 879 879 985 985 985 985 985 985 985 985 985 985 986 986 986 986 986 986 986 986 986 986 986 986 986 986 986 984 984 984 984 984 984 984 984 984 984 984 984 984 984 984 984 984 984 984 984 984 275 0 275 275 275 275 275 275 983 985 942 942 942 984
879 879 879 879 879 879 879 879 879 879 879 879 879 879 879 879 879 985 985 985 985 985 985 985 985 985 985 986 986 986 986 986 986 986 986 986 986 986 986 986 986 986 984 984 984 984 984 984 984 984 984 984 984 984 984 984 984 984 984 984 984 984 984 275 275 0 275 275 275 275 275 983 985 942 942 942 984
879 879 879 879 879 879 879 879 879 879 879 879 879 879 879 879 879 985 985 985 985 985 985 985 985 985 985 986 986 986 986 986 986 986 986 986 986 986 986 986 986 986 984 984 984 984 984 984 984 984 984 984 984 984 984 984 984 984 984 984 984 984 984 275 275 275 0 275 275 275 275 983 985 942 942 942 984
879 879 879 879 879 879 879 879 879 879 879 879 879 879 879 879 879 985 985 985 985 985 985 985 985 985 985 986 986 986 986 986 986 986 986 986 986 986 986 986 986 986 984 984 984 984 984 984 984 984 984 984 984 984 984 984 984 984 984 984 984 984 984 275 275 275 275 0 275 275 275 983 985 942 942 942 984
879 879 879 879 879 879 879 879 879 879 879 879 879 879 879 879 879 985 985 985 985 985 985 985 985 985 985 986 986 986 986 986 986 986 986 986 986 986 986 986 986 986 984 984 984 984 984 984 984 984 984 984 984 984 984 984 984 984 984 984 984 984 984 275 275 275 275 275 0 275 275 983 985 942 942 942 984
879 879 879 879 879 879 879 879 879 879 879 879 879 879 879 879 879 985 985 985 985 985 985 985 985 985 985 986 986 986 986 986 986 986 986 986 986 986 986 986 986 986 984 984 984 984 984 984 984 984 984 984 984 984 984 984 984 984 984 984 984 984 984 275 275 275 275 275 275 0 275 983 985 942 942 942 984
879 879 879 879 879 879 879 879 879 879 879 879 879 879 879 879 879 985 985 985 985 985 985 985 985 985 985 986 986 986 986 986 986 986 986 986 986 986 986 986 986 986 984 984 984 984 984 984 984 984 984 984 984 984 984 984 984 984 984 984 984 984 984 275 275 275 275 275 275 275 0 983 985 942 942 942 984
966 966 966 966 966 966 966 966 966 966 966 966 966 966 966 966 966 980 980 980 980 980 980 980 980 980 980 963 963 963 963 963 963 963 963 963 963 963 963 963 963 963 977 977 977 977 977 977 977 977 977 977 977 977 977 977 977 977 977 977 977 977 977 983 983 983 983 983 983 983 983 0 891 883 883 883 879
925 925 925 925 925 925 925 925 925 925 925 925 925 925 925 925 925 950 950 950 950 950 950 950 950 950 950 969 969 969 969 969 969 969 969 969 969 969 969 969 969 969 981 981 981 981 981 981 981 981 981 981 981 981 981 981 981 981 981 981 981 981 981 985 985 985 985 985 985 985 985 891 0 885 885 885 916
953 953 953 953 953 953 953 953 953 953 953 953 953 953 953 953 953 985 985 985 985 985 985 985 985 985 985 927 927 927 927 927 927 927 927 927 927 927 927 927 927 927 984 984 984 984 984 984 984 984 984 984 984 984 984 984 984 984 984 984 984 984 984 942 942 942 942 942 942 942 942 883 885 0 290 290 797
953 953 953 953 953 953 953 953 953 953 953 953 953 953 953 953 953 985 985 985 985 985 985 985 985 985 985 927 927 927 927 927 927 927 927 927 927 927 927 927 927 927 984 984 984 984 984 984 984 984 984 984 984 984 984 984 984 984 984 984 984 984 984 942 942 942 942 942 942 942 942 883 885 290 0 275 797
953 953 953 953 953 953 953 953 953 953 953 953 953 953 953 953 953 985 985 985 985 985 985 985 985 985 985 927 927 927 927 927 927 927 927 927 927 927 927 927 927 927 984 984 984 984 984 984 984 984 984 984 984 984 984 984 984 984 984 984 984 984 984 942 942 942 942 942 942 942 942 883 885 290 275 0 797
969 969 969 969 969 969 969 969 969 969 969 969 969 969 969 969 969 981 981 981 981 981 981 981 981 981 981 767 767 767 767 767 767 767 767 767 767 767 767 767 767 767 888 888 888 888 888 888 888 888 888 888 888 888 888 888 980 980 980 980 980 980 980 984 984 984 984 984 984 984 984 879 916 797 797 797 0
EOF